units metal
atom_style atomic
boundary p p p

# Potential setup (placeholder)
pair_style none

# MD Settings
velocity all create {temperature} 12345 dist gaussian
fix 1 all nvt temp {temperature} {temperature} 0.1
timestep 0.001

run {steps}
