
units           metal
atom_style      atomic
boundary        p p p

read_data       data.lammps

pair_style      hybrid/overlay lj/cut 2.5 zbl 4.0 5.0
pair_coeff      * * lj/cut 1.0 1.0
pair_coeff      1 1 zbl 14 14

velocity        all create 300.0 12345 dist gaussian

fix             1 all nvt temp 300.0 300.0 0.1

timestep        0.001
run             100

dump            1 all custom 10 dump.lammpstrj id type x y z
dump_modify     1 sort id
