
units metal
atom_style atomic
boundary p p p
read_data data.lammps
pair_style lj/cut 2.5
pair_coeff * * 1.0 1.0
mass * 28.085
velocity all create 300.0 12345
fix 1 all nvt temp 300.0 300.0 0.1
dump 1 all custom 100 dump.lammpstrj id type x y z
run 100
